# Gempis Job File
PROJECT "Bad Parallel Job"
REQUIREMENTS "fastreq -v2006.90 Acquifer.project3d"
PARALLEL "fastcbm -project xxx.project3d -temperature" "temperature Calculation"
LOCAL "echo done"
PARALLEL "fastcbm -v2006.90 -project AMT_BASE_CASE_2006_ALL_SANDS.project3d -temperature" "temperature Calculation"
