# Gempis Bad local Job File
PROJECT "Bad LOCAL job"
REQUIREMENTS "fastreq Acquifer.project3d"
LOCAL "xxx"
LOCAL "ls *.xxx"
